NAME : CON3-5.5636941.tour
COMMENT : Cost = 0_5636941
COMMENT : Found by LKH [Keld Helsgaun] Sat Sep  9 21:17:06 2017
TYPE : TOUR
DIMENSION : 54
TOUR_SECTION
1
36
19
45
21
48
11
33
32
50
27
26
20
38
7
39
46
17
53
5
41
12
30
44
10
54
43
23
4
18
2
13
14
3
42
24
16
52
47
6
34
49
40
51
37
8
22
9
31
25
15
28
35
29
-1
EOF
